c description: tiling of 
c generator: CNFgen (0.9.0)
c copyright: (C) 2012-2020 Massimo Lauria <massimo.lauria@uniroma1.it>
c url: https://massimolauria.net/cnfgen
c
p cnf 10 41
-1 -6 0
1 6 0
-2 -3 0
-2 -4 0
-2 -5 0
-3 -4 0
-3 -5 0
-4 -5 0
2 3 4 5 0
-2 -3 0
-2 -10 0
-3 -10 0
2 3 10 0
-2 -7 0
-2 -9 0
-2 -10 0
-7 -9 0
-7 -10 0
-9 -10 0
2 7 9 10 0
-3 -4 0
-3 -7 0
-4 -7 0
3 4 7 0
-3 -5 0
-3 -7 0
-5 -7 0
3 5 7 0
-4 -5 0
-4 -7 0
-4 -10 0
-5 -7 0
-5 -10 0
-7 -10 0
4 5 7 10 0
-8 -9 0
8 9 0
-8 -9 0
-8 -10 0
-9 -10 0
8 9 10 0